<?xml version="1.0" encoding="UTF-8"?>
<instance xmlns:xsi="http://www.w3.org/2001/XMLSchema-instance" xsi:noNamespaceSchemaLocation="src/frodo2/algorithms/XCSPschemaJaCoP.xsd">
  <presentation name="graphColoring_1520927334557" maxConstraintArity="2" maximize="false" format="XCSP 2.1_FRODO">
    <stats name="number of nodes">3</stats>
    <stats name="target density">0.4</stats>
    <stats name="true average density">0.3333333333333333</stats>
    <stats name="target unary tightness">0.0</stats>
    <stats name="true average unary tightness">0.0</stats>
    <stats name="number of colors">3</stats>
    <stats name="number of uncontrollable nodes">0</stats>
    <stats name="number of disconnected components">2</stats>
    <stats name="max degree">1</stats>
  </presentation>
  <agents nbAgents="3">
    <agent name="a0" />
    <agent name="a1" />
    <agent name="a2" />
  </agents>
  <domains nbDomains="1">
    <domain name="colors" nbValues="3">1..3</domain>
  </domains>
  <variables nbVariables="3">
    <variable name="n0" domain="colors" agent="a0" />
    <variable name="n1" domain="colors" agent="a1" />
    <variable name="n2" domain="colors" agent="a2" />
  </variables>
  <predicates nbPredicates="1">
    <predicate name="neq">
      <parameters>int X int Y</parameters>
      <expression>
        <functional>ne(X, Y)</functional>
      </expression>
    </predicate>
  </predicates>
  <constraints nbConstraints="1">
    <constraint name="n0_neq_n1" scope="n0 n1" arity="2" reference="neq">
      <parameters>n0 n1</parameters>
    </constraint>
  </constraints>
</instance>
